14836.0	19.0
21653.0	39.0
19871.0	32.0
19972.0	38.0
19555.0	31.0
18299.0	30.0
17594.0	27.0
16762.0	25.0
16474.0	23.0
15458.0	20.0
13864.0	17.0
13873.0	18.0
12078.0	12.0
12139.0	14.0
12435.0	16.0
11943.0	11.0
